p edge 60 146
e 1 6
e 1 18
e 1 25
e 2 7
e 2 8
e 2 10
e 2 20
e 2 36
e 2 45
e 2 52
e 3 6
e 3 13
e 3 21
e 3 39
e 4 7
e 4 26
e 4 29
e 4 45
e 5 26
e 5 51
e 5 59
e 5 60
e 6 13
e 6 19
e 6 29
e 7 13
e 7 42
e 7 49
e 7 51
e 7 56
e 8 31
e 8 33
e 8 45
e 9 14
e 9 51
e 9 57
e 10 16
e 11 12
e 11 17
e 11 18
e 11 25
e 11 29
e 11 37
e 12 20
e 12 28
e 12 32
e 13 14
e 13 34
e 13 36
e 14 15
e 14 19
e 14 20
e 14 39
e 14 51
e 15 33
e 15 40
e 15 44
e 15 50
e 16 25
e 16 37
e 18 27
e 18 30
e 18 31
e 18 35
e 18 45
e 18 51
e 18 52
e 18 56
e 19 31
e 19 41
e 19 44
e 19 47
e 20 35
e 20 45
e 21 40
e 22 49
e 22 50
e 23 24
e 23 38
e 23 45
e 24 28
e 24 38
e 24 46
e 24 60
e 25 45
e 25 51
e 25 52
e 25 54
e 25 59
e 26 30
e 26 32
e 26 40
e 26 44
e 26 57
e 27 28
e 27 30
e 27 39
e 28 34
e 28 52
e 28 58
e 29 38
e 29 39
e 29 49
e 29 58
e 30 34
e 30 37
e 30 48
e 30 50
e 30 59
e 31 36
e 31 48
e 31 49
e 32 35
e 32 52
e 33 59
e 34 36
e 34 54
e 34 59
e 35 42
e 36 39
e 36 40
e 36 42
e 36 47
e 36 57
e 37 44
e 37 54
e 38 39
e 38 46
e 38 59
e 39 60
e 40 45
e 41 52
e 45 47
e 45 50
e 45 60
e 46 47
e 47 48
e 47 58
e 48 58
e 48 60
e 50 60
e 52 54
e 54 55
e 55 56
e 55 58
e 58 59
